column=11;
row=11;
Board=[|0,0,0,10,0,0,3,4,0,7,6|10,0,0,2,6,0,8,9,0,5,0|1,0,0,6,0,0,9,5,0,10,4|7,10,9,4,11,8,2,6,0,0,1|4,2,6,0,5,7,0,8,10,9,3|6,8,0,3,7,5,0,1,9,11,2|5,6,0,0,4,0,7,11,3,2,8|0,9,5,0,0,2,4,0,6,8,10|0,0,2,11,0,0,0,10,7,0,5|0,0,0,0,0,6,0,0,0,4,9|0,3,11,0,0,4,0,2,1,6,7|];
horizontal=[|1,1,0,0,2,1,1,0,2,0|2,1,2,1,2,1,1,0,1,1|1,0,1,0,1,0,0,0,1,0|1,0,0,1,2,0,0,0,2,2|2,0,0,1,1,1,2,0,2,2|0,0,2,0,0,1,2,0,0,2|1,2,1,2,1,2,0,2,0,0|2,2,0,0,1,0,2,1,0,0|0,0,0,0,1,0,1,2,0,1|0,2,0,0,2,2,1,2,0,1|2,1,0,1,2,1,0,2,1,1|];
vertical=[|1,0,2,2,2,1,1,1,0,0,0|2,0,0,1,2,1,0,2,0,1,0|0,0,1,2,1,0,0,1,2,2,0|0,0,2,0,0,2,0,0,1,1,0|1,1,2,0,0,0,0,2,2,1,0|2,0,2,1,2,1,2,1,0,2,1|1,0,1,2,2,0,0,0,1,0,1|0,0,2,1,0,1,0,1,1,0,2|0,1,0,0,0,2,2,0,0,1,1|1,0,1,1,1,2,1,2,2,0,0|];
